Ta64 Zn96 O256
1.0
  17.5113272243999987    0.0000000000000000    0.0000000000000000
   0.0000000000000000   16.7390567471999994    0.0000000000000000
  -8.3856678532000011    0.0000000000000000   16.9327502474000013
O Ta Zn O
1 64 96 255
direct
   0.1530382534000001    0.9378088798500013    0.0721190004000007 O
   0.2097022071500003    0.3212340876499997    0.4364545251000003 Ta
   0.2097022071500003    0.3212340876499997    0.9364545251000003 Ta
   0.4597022071500004    0.5712340876499997    0.4364545251000003 Ta
   0.4597022071500004    0.5712340876499997    0.9364545251000003 Ta
   0.2097022071500003    0.8212340876499997    0.4364545251000003 Ta
   0.2097022071500003    0.8212340876499997    0.9364545251000003 Ta
   0.4597022071500004    0.0712340876499997    0.4364545251000003 Ta
   0.4597022071500004    0.0712340876499997    0.9364545251000003 Ta
   0.7097022071500003    0.3212340876499997    0.4364545251000003 Ta
   0.7097022071500004    0.3212340876499997    0.9364545251000003 Ta
   0.9597022071500003    0.5712340876499997    0.4364545251000003 Ta
   0.9597022071500004    0.5712340876499997    0.9364545251000003 Ta
   0.7097022071500003    0.8212340876499997    0.4364545251000003 Ta
   0.7097022071500004    0.8212340876499997    0.9364545251000003 Ta
   0.9597022071500003    0.0712340876499997    0.4364545251000003 Ta
   0.9597022071500004    0.0712340876499997    0.9364545251000003 Ta
   0.2902977928499997    0.3212340876499997    0.3135454748999997 Ta
   0.2902977928499997    0.3212340876499997    0.8135454748999997 Ta
   0.5402977928499997    0.5712340876499997    0.3135454748999997 Ta
   0.5402977928499998    0.5712340876499997    0.8135454748999997 Ta
   0.2902977928499997    0.8212340876499997    0.3135454748999997 Ta
   0.2902977928499997    0.8212340876499997    0.8135454748999997 Ta
   0.5402977928499997    0.0712340876499997    0.3135454748999997 Ta
   0.5402977928499998    0.0712340876499997    0.8135454748999997 Ta
   0.7902977928499998    0.3212340876499997    0.3135454748999997 Ta
   0.7902977928499998    0.3212340876499997    0.8135454748999997 Ta
   0.0402977928499997    0.5712340876499997    0.3135454748999997 Ta
   0.0402977928499999    0.5712340876499997    0.8135454748999997 Ta
   0.7902977928499998    0.8212340876499997    0.3135454748999997 Ta
   0.7902977928499998    0.8212340876499997    0.8135454748999997 Ta
   0.0402977928499997    0.0712340876499997    0.3135454748999997 Ta
   0.0402977928499999    0.0712340876499997    0.8135454748999997 Ta
   0.2902977928499997    0.6787659123500003    0.0635454748999997 Ta
   0.2902977928499997    0.6787659123500003    0.5635454748999997 Ta
   0.5402977928499998    0.9287659123500004    0.0635454748999997 Ta
   0.5402977928499997    0.9287659123500004    0.5635454748999997 Ta
   0.2902977928499997    0.1787659123500003    0.0635454748999997 Ta
   0.2902977928499997    0.1787659123500003    0.5635454748999997 Ta
   0.5402977928499998    0.4287659123500003    0.0635454748999997 Ta
   0.5402977928499997    0.4287659123500003    0.5635454748999997 Ta
   0.7902977928499998    0.6787659123500003    0.0635454748999997 Ta
   0.7902977928499998    0.6787659123500003    0.5635454748999997 Ta
   0.0402977928499997    0.9287659123500004    0.0635454748999997 Ta
   0.0402977928499997    0.9287659123500004    0.5635454748999997 Ta
   0.7902977928499998    0.1787659123500003    0.0635454748999997 Ta
   0.7902977928499998    0.1787659123500003    0.5635454748999997 Ta
   0.0402977928499997    0.4287659123500003    0.0635454748999997 Ta
   0.0402977928499997    0.4287659123500003    0.5635454748999997 Ta
   0.2097022071500003    0.6787659123500003    0.1864545251000003 Ta
   0.2097022071500004    0.6787659123500003    0.6864545251000003 Ta
   0.4597022071500004    0.9287659123500004    0.1864545251000003 Ta
   0.4597022071500004    0.9287659123500004    0.6864545251000003 Ta
   0.2097022071500003    0.1787659123500003    0.1864545251000003 Ta
   0.2097022071500004    0.1787659123500003    0.6864545251000003 Ta
   0.4597022071500004    0.4287659123500003    0.1864545251000003 Ta
   0.4597022071500004    0.4287659123500003    0.6864545251000003 Ta
   0.7097022071500004    0.6787659123500003    0.1864545251000003 Ta
   0.7097022071500004    0.6787659123500003    0.6864545251000003 Ta
   0.9597022071500004    0.9287659123500004    0.1864545251000003 Ta
   0.9597022071500004    0.9287659123500004    0.6864545251000003 Ta
   0.7097022071500004    0.1787659123500003    0.1864545251000003 Ta
   0.7097022071500004    0.1787659123500003    0.6864545251000003 Ta
   0.9597022071500004    0.4287659123500003    0.1864545251000003 Ta
   0.9597022071500004    0.4287659123500003    0.6864545251000003 Ta
   0.2500000000000000    0.6313883458000014    0.3750000000000000 Zn
   0.2500000000000000    0.6313883458000014    0.8750000000000000 Zn
   0.5000000000000000    0.8813883458000015    0.3750000000000000 Zn
   0.5000000000000000    0.8813883458000015    0.8750000000000000 Zn
   0.2500000000000000    0.1313883458000014    0.3750000000000000 Zn
   0.2500000000000000    0.1313883458000014    0.8750000000000000 Zn
   0.5000000000000000    0.3813883458000014    0.3750000000000000 Zn
   0.5000000000000000    0.3813883458000014    0.8750000000000000 Zn
   0.7500000000000000    0.6313883458000014    0.3750000000000000 Zn
   0.7500000000000001    0.6313883458000014    0.8750000000000000 Zn
   0.0000000000000000    0.8813883458000015    0.3750000000000000 Zn
   0.0000000000000000    0.8813883458000015    0.8750000000000000 Zn
   0.7500000000000000    0.1313883458000014    0.3750000000000000 Zn
   0.7500000000000001    0.1313883458000014    0.8750000000000000 Zn
   0.0000000000000000    0.3813883458000014    0.3750000000000000 Zn
   0.0000000000000000    0.3813883458000014    0.8750000000000000 Zn
   0.2500000000000001    0.3686116541999986    0.1250000000000000 Zn
   0.2500000000000001    0.3686116541999986    0.6250000000000001 Zn
   0.5000000000000000    0.6186116541999986    0.1250000000000000 Zn
   0.5000000000000001    0.6186116541999986    0.6250000000000001 Zn
   0.2500000000000001    0.8686116541999986    0.1250000000000000 Zn
   0.2500000000000001    0.8686116541999986    0.6250000000000001 Zn
   0.5000000000000000    0.1186116541999987    0.1250000000000000 Zn
   0.5000000000000001    0.1186116541999987    0.6250000000000001 Zn
   0.7500000000000000    0.3686116541999986    0.1250000000000000 Zn
   0.7500000000000001    0.3686116541999986    0.6250000000000001 Zn
   0.0000000000000000    0.6186116541999986    0.1250000000000000 Zn
   0.0000000000000002    0.6186116541999986    0.6250000000000001 Zn
   0.7500000000000000    0.8686116541999986    0.1250000000000000 Zn
   0.7500000000000001    0.8686116541999986    0.6250000000000001 Zn
   0.0000000000000000    0.1186116541999987    0.1250000000000000 Zn
   0.0000000000000002    0.1186116541999987    0.6250000000000001 Zn
   0.3282046267000016    0.5088445481499999    0.2480001993000016 Zn
   0.3282046267000016    0.5088445481499999    0.7480001993000016 Zn
   0.5782046267000017    0.7588445481500000    0.2480001993000016 Zn
   0.5782046267000016    0.7588445481500000    0.7480001993000016 Zn
   0.3282046267000016    0.0088445481499999    0.2480001993000016 Zn
   0.3282046267000016    0.0088445481499999    0.7480001993000016 Zn
   0.5782046267000017    0.2588445481499999    0.2480001993000016 Zn
   0.5782046267000016    0.2588445481499999    0.7480001993000016 Zn
   0.8282046267000016    0.5088445481499999    0.2480001993000016 Zn
   0.8282046267000017    0.5088445481499999    0.7480001993000016 Zn
   0.0782046267000018    0.7588445481500000    0.2480001993000016 Zn
   0.0782046267000016    0.7588445481500000    0.7480001993000016 Zn
   0.8282046267000016    0.0088445481499999    0.2480001993000016 Zn
   0.8282046267000017    0.0088445481499999    0.7480001993000016 Zn
   0.0782046267000018    0.2588445481499999    0.2480001993000016 Zn
   0.0782046267000016    0.2588445481499999    0.7480001993000016 Zn
   0.1717953732999984    0.5088445481499999    0.0019998006999984 Zn
   0.1717953732999984    0.5088445481499999    0.5019998006999984 Zn
   0.4217953732999984    0.7588445481500000    0.0019998006999984 Zn
   0.4217953732999984    0.7588445481500000    0.5019998006999984 Zn
   0.1717953732999984    0.0088445481499999    0.0019998006999984 Zn
   0.1717953732999984    0.0088445481499999    0.5019998006999984 Zn
   0.4217953732999984    0.2588445481499999    0.0019998006999984 Zn
   0.4217953732999984    0.2588445481499999    0.5019998006999984 Zn
   0.6717953732999984    0.5088445481499999    0.0019998006999984 Zn
   0.6717953732999984    0.5088445481499999    0.5019998006999984 Zn
   0.9217953732999983    0.7588445481500000    0.0019998006999984 Zn
   0.9217953732999984    0.7588445481500000    0.5019998006999984 Zn
   0.6717953732999984    0.0088445481499999    0.0019998006999984 Zn
   0.6717953732999984    0.0088445481499999    0.5019998006999984 Zn
   0.9217953732999983    0.2588445481499999    0.0019998006999984 Zn
   0.9217953732999984    0.2588445481499999    0.5019998006999984 Zn
   0.1717953732999984    0.4911554518500001    0.2519998006999984 Zn
   0.1717953732999984    0.4911554518500001    0.7519998006999984 Zn
   0.4217953732999984    0.7411554518500001    0.2519998006999984 Zn
   0.4217953732999984    0.7411554518500001    0.7519998006999984 Zn
   0.1717953732999984    0.9911554518500001    0.2519998006999984 Zn
   0.1717953732999984    0.9911554518500001    0.7519998006999984 Zn
   0.4217953732999984    0.2411554518500001    0.2519998006999984 Zn
   0.4217953732999984    0.2411554518500001    0.7519998006999984 Zn
   0.6717953732999985    0.4911554518500001    0.2519998006999984 Zn
   0.6717953732999985    0.4911554518500001    0.7519998006999984 Zn
   0.9217953732999985    0.7411554518500001    0.2519998006999984 Zn
   0.9217953732999985    0.7411554518500001    0.7519998006999984 Zn
   0.6717953732999985    0.9911554518500001    0.2519998006999984 Zn
   0.6717953732999985    0.9911554518500001    0.7519998006999984 Zn
   0.9217953732999985    0.2411554518500001    0.2519998006999984 Zn
   0.9217953732999985    0.2411554518500001    0.7519998006999984 Zn
   0.3282046267000016    0.4911554518500001    0.4980001993000016 Zn
   0.3282046267000017    0.4911554518500001    0.9980001993000017 Zn
   0.5782046267000016    0.7411554518500001    0.4980001993000016 Zn
   0.5782046267000017    0.7411554518500001    0.9980001993000017 Zn
   0.3282046267000016    0.9911554518500001    0.4980001993000016 Zn
   0.3282046267000017    0.9911554518500001    0.9980001993000017 Zn
   0.5782046267000016    0.2411554518500001    0.4980001993000016 Zn
   0.5782046267000017    0.2411554518500001    0.9980001993000017 Zn
   0.8282046267000017    0.4911554518500001    0.4980001993000016 Zn
   0.8282046267000017    0.4911554518500001    0.9980001993000017 Zn
   0.0782046267000016    0.7411554518500001    0.4980001993000016 Zn
   0.0782046267000018    0.7411554518500001    0.9980001993000017 Zn
   0.8282046267000017    0.9911554518500001    0.4980001993000016 Zn
   0.8282046267000017    0.9911554518500001    0.9980001993000017 Zn
   0.0782046267000016    0.2411554518500001    0.4980001993000016 Zn
   0.0782046267000018    0.2411554518500001    0.9980001993000017 Zn
   0.1530382534000001    0.4378088798500013    0.0721190004000007 O
   0.1530382534000002    0.4378088798500013    0.5721190004000009 O
   0.4030382534000001    0.6878088798500014    0.0721190004000007 O
   0.4030382534000002    0.6878088798500014    0.5721190004000009 O
   0.1530382534000002    0.9378088798500013    0.5721190004000009 O
   0.4030382534000001    0.1878088798500013    0.0721190004000007 O
   0.4030382534000002    0.1878088798500013    0.5721190004000009 O
   0.6530382534000001    0.4378088798500013    0.0721190004000007 O
   0.6530382534000001    0.4378088798500013    0.5721190004000009 O
   0.9030382534000001    0.6878088798500014    0.0721190004000007 O
   0.9030382534000001    0.6878088798500014    0.5721190004000009 O
   0.6530382534000001    0.9378088798500013    0.0721190004000007 O
   0.6530382534000001    0.9378088798500013    0.5721190004000009 O
   0.9030382534000001    0.1878088798500013    0.0721190004000007 O
   0.9030382534000001    0.1878088798500013    0.5721190004000009 O
   0.3469617465999999    0.4378088798500013    0.1778809995999993 O
   0.3469617466000000    0.4378088798500013    0.6778809995999994 O
   0.5969617466000000    0.6878088798500014    0.1778809995999993 O
   0.5969617465999999    0.6878088798500014    0.6778809995999994 O
   0.3469617465999999    0.9378088798500013    0.1778809995999993 O
   0.3469617466000000    0.9378088798500013    0.6778809995999994 O
   0.5969617466000000    0.1878088798500013    0.1778809995999993 O
   0.5969617465999999    0.1878088798500013    0.6778809995999994 O
   0.8469617466000000    0.4378088798500013    0.1778809995999993 O
   0.8469617466000000    0.4378088798500013    0.6778809995999994 O
   0.0969617466000001    0.6878088798500014    0.1778809995999993 O
   0.0969617465999999    0.6878088798500014    0.6778809995999994 O
   0.8469617466000000    0.9378088798500013    0.1778809995999993 O
   0.8469617466000000    0.9378088798500013    0.6778809995999994 O
   0.0969617466000001    0.1878088798500013    0.1778809995999993 O
   0.0969617465999999    0.1878088798500013    0.6778809995999994 O
   0.3469617466000000    0.5621911201499987    0.4278809995999993 O
   0.3469617466000000    0.5621911201499987    0.9278809995999993 O
   0.5969617466000000    0.8121911201499988    0.4278809995999993 O
   0.5969617466000000    0.8121911201499988    0.9278809995999993 O
   0.3469617466000000    0.0621911201499987    0.4278809995999993 O
   0.3469617466000000    0.0621911201499987    0.9278809995999993 O
   0.5969617466000000    0.3121911201499987    0.4278809995999993 O
   0.5969617466000000    0.3121911201499987    0.9278809995999993 O
   0.8469617466000000    0.5621911201499987    0.4278809995999993 O
   0.8469617466000000    0.5621911201499987    0.9278809995999993 O
   0.0969617466000001    0.8121911201499988    0.4278809995999993 O
   0.0969617466000001    0.8121911201499988    0.9278809995999993 O
   0.8469617466000000    0.0621911201499987    0.4278809995999993 O
   0.8469617466000000    0.0621911201499987    0.9278809995999993 O
   0.0969617466000001    0.3121911201499987    0.4278809995999993 O
   0.0969617466000001    0.3121911201499987    0.9278809995999993 O
   0.1530382534000001    0.5621911201499987    0.3221190004000007 O
   0.1530382534000001    0.5621911201499987    0.8221190004000007 O
   0.4030382534000002    0.8121911201499988    0.3221190004000007 O
   0.4030382534000001    0.8121911201499988    0.8221190004000007 O
   0.1530382534000001    0.0621911201499987    0.3221190004000007 O
   0.1530382534000001    0.0621911201499987    0.8221190004000007 O
   0.4030382534000002    0.3121911201499987    0.3221190004000007 O
   0.4030382534000001    0.3121911201499987    0.8221190004000007 O
   0.6530382534000002    0.5621911201499987    0.3221190004000007 O
   0.6530382534000001    0.5621911201499987    0.8221190004000007 O
   0.9030382534000002    0.8121911201499988    0.3221190004000007 O
   0.9030382534000001    0.8121911201499988    0.8221190004000007 O
   0.6530382534000002    0.0621911201499987    0.3221190004000007 O
   0.6530382534000001    0.0621911201499987    0.8221190004000007 O
   0.9030382534000002    0.3121911201499987    0.3221190004000007 O
   0.9030382534000001    0.3121911201499987    0.8221190004000007 O
   0.2232937323749997    0.4330784248250001    0.4542816439000000 O
   0.2232937323749998    0.4330784248250001    0.9542816438999999 O
   0.4732937323749998    0.6830784248250001    0.4542816439000000 O
   0.4732937323749998    0.6830784248250001    0.9542816438999999 O
   0.2232937323749997    0.9330784248250001    0.4542816439000000 O
   0.2232937323749998    0.9330784248250001    0.9542816438999999 O
   0.4732937323749998    0.1830784248250001    0.4542816439000000 O
   0.4732937323749998    0.1830784248250001    0.9542816438999999 O
   0.7232937323749998    0.4330784248250001    0.4542816439000000 O
   0.7232937323749998    0.4330784248250001    0.9542816438999999 O
   0.9732937323749998    0.6830784248250001    0.4542816439000000 O
   0.9732937323749998    0.6830784248250001    0.9542816438999999 O
   0.7232937323749998    0.9330784248250001    0.4542816439000000 O
   0.7232937323749998    0.9330784248250001    0.9542816438999999 O
   0.9732937323749998    0.1830784248250001    0.4542816439000000 O
   0.9732937323749998    0.1830784248250001    0.9542816438999999 O
   0.2767062676250003    0.4330784248250001    0.2957183561000001 O
   0.2767062676250003    0.4330784248250001    0.7957183561000001 O
   0.5267062676250003    0.6830784248250001    0.2957183561000001 O
   0.5267062676250003    0.6830784248250001    0.7957183561000001 O
   0.2767062676250003    0.9330784248250001    0.2957183561000001 O
   0.2767062676250003    0.9330784248250001    0.7957183561000001 O
   0.5267062676250003    0.1830784248250001    0.2957183561000001 O
   0.5267062676250003    0.1830784248250001    0.7957183561000001 O
   0.7767062676250003    0.4330784248250001    0.2957183561000001 O
   0.7767062676250003    0.4330784248250001    0.7957183561000001 O
   0.0267062676250005    0.6830784248250001    0.2957183561000001 O
   0.0267062676250003    0.6830784248250001    0.7957183561000001 O
   0.7767062676250003    0.9330784248250001    0.2957183561000001 O
   0.7767062676250003    0.9330784248250001    0.7957183561000001 O
   0.0267062676250005    0.1830784248250001    0.2957183561000001 O
   0.0267062676250003    0.1830784248250001    0.7957183561000001 O
   0.2767062676250003    0.5669215751749999    0.0457183561000001 O
   0.2767062676250003    0.5669215751749999    0.5457183561000001 O
   0.5267062676250004    0.8169215751750000    0.0457183561000001 O
   0.5267062676250003    0.8169215751750000    0.5457183561000001 O
   0.2767062676250003    0.0669215751749999    0.0457183561000001 O
   0.2767062676250003    0.0669215751749999    0.5457183561000001 O
   0.5267062676250004    0.3169215751749999    0.0457183561000001 O
   0.5267062676250003    0.3169215751749999    0.5457183561000001 O
   0.7767062676250004    0.5669215751749999    0.0457183561000001 O
   0.7767062676250004    0.5669215751749999    0.5457183561000001 O
   0.0267062676250001    0.8169215751750000    0.0457183561000001 O
   0.0267062676250003    0.8169215751750000    0.5457183561000001 O
   0.7767062676250004    0.0669215751749999    0.0457183561000001 O
   0.7767062676250004    0.0669215751749999    0.5457183561000001 O
   0.0267062676250001    0.3169215751749999    0.0457183561000001 O
   0.0267062676250003    0.3169215751749999    0.5457183561000001 O
   0.2232937323749997    0.5669215751749999    0.2042816438999999 O
   0.2232937323749997    0.5669215751749999    0.7042816438999999 O
   0.4732937323749998    0.8169215751750000    0.2042816438999999 O
   0.4732937323749998    0.8169215751750000    0.7042816438999999 O
   0.2232937323749997    0.0669215751749999    0.2042816438999999 O
   0.2232937323749997    0.0669215751749999    0.7042816438999999 O
   0.4732937323749998    0.3169215751749999    0.2042816438999999 O
   0.4732937323749998    0.3169215751749999    0.7042816438999999 O
   0.7232937323749997    0.5669215751749999    0.2042816438999999 O
   0.7232937323749998    0.5669215751749999    0.7042816438999999 O
   0.9732937323749998    0.8169215751750000    0.2042816438999999 O
   0.9732937323749997    0.8169215751750000    0.7042816438999999 O
   0.7232937323749997    0.0669215751749999    0.2042816438999999 O
   0.7232937323749998    0.0669215751749999    0.7042816438999999 O
   0.9732937323749998    0.3169215751749999    0.2042816438999999 O
   0.9732937323749997    0.3169215751749999    0.7042816438999999 O
   0.4233539778499989    0.5663138439999997    0.3211202455000013 O
   0.4233539778499990    0.5663138439999997    0.8211202455000014 O
   0.6733539778499988    0.8163138439999998    0.3211202455000013 O
   0.6733539778499990    0.8163138439999998    0.8211202455000014 O
   0.4233539778499989    0.0663138439999997    0.3211202455000013 O
   0.4233539778499990    0.0663138439999997    0.8211202455000014 O
   0.6733539778499988    0.3163138439999997    0.3211202455000013 O
   0.6733539778499990    0.3163138439999997    0.8211202455000014 O
   0.9233539778499988    0.5663138439999997    0.3211202455000013 O
   0.9233539778499990    0.5663138439999997    0.8211202455000014 O
   0.1733539778499991    0.8163138439999998    0.3211202455000013 O
   0.1733539778499988    0.8163138439999998    0.8211202455000014 O
   0.9233539778499988    0.0663138439999997    0.3211202455000013 O
   0.9233539778499990    0.0663138439999997    0.8211202455000014 O
   0.1733539778499991    0.3163138439999997    0.3211202455000013 O
   0.1733539778499988    0.3163138439999997    0.8211202455000014 O
   0.0766460221500012    0.5663138439999997    0.4288797544999987 O
   0.0766460221500012    0.5663138439999997    0.9288797544999987 O
   0.3266460221500012    0.8163138439999998    0.4288797544999987 O
   0.3266460221500012    0.8163138439999998    0.9288797544999987 O
   0.0766460221500012    0.0663138439999997    0.4288797544999987 O
   0.0766460221500012    0.0663138439999997    0.9288797544999987 O
   0.3266460221500012    0.3163138439999997    0.4288797544999987 O
   0.3266460221500012    0.3163138439999997    0.9288797544999987 O
   0.5766460221500013    0.5663138439999997    0.4288797544999987 O
   0.5766460221500013    0.5663138439999997    0.9288797544999987 O
   0.8266460221500013    0.8163138439999998    0.4288797544999987 O
   0.8266460221500013    0.8163138439999998    0.9288797544999987 O
   0.5766460221500013    0.0663138439999997    0.4288797544999987 O
   0.5766460221500013    0.0663138439999997    0.9288797544999987 O
   0.8266460221500013    0.3163138439999997    0.4288797544999987 O
   0.8266460221500013    0.3163138439999997    0.9288797544999987 O
   0.2299140935250001    0.3010714817249998    0.1967515624500003 O
   0.2299140935250002    0.3010714817249998    0.6967515624500003 O
   0.4799140935250001    0.5510714817249999    0.1967515624500003 O
   0.4799140935250001    0.5510714817249999    0.6967515624500003 O
   0.2299140935250001    0.8010714817249998    0.1967515624500003 O
   0.2299140935250002    0.8010714817249998    0.6967515624500003 O
   0.4799140935250001    0.0510714817249998    0.1967515624500003 O
   0.4799140935250001    0.0510714817249998    0.6967515624500003 O
   0.7299140935250003    0.3010714817249998    0.1967515624500003 O
   0.7299140935250001    0.3010714817249998    0.6967515624500003 O
   0.9799140935250001    0.5510714817249999    0.1967515624500003 O
   0.9799140935250003    0.5510714817249999    0.6967515624500003 O
   0.7299140935250003    0.8010714817249998    0.1967515624500003 O
   0.7299140935250001    0.8010714817249998    0.6967515624500003 O
   0.9799140935250001    0.0510714817249998    0.1967515624500003 O
   0.9799140935250003    0.0510714817249998    0.6967515624500003 O
   0.2700859064749999    0.3010714817249998    0.0532484375499997 O
   0.2700859064749999    0.3010714817249998    0.5532484375499997 O
   0.5200859064750000    0.5510714817249999    0.0532484375499997 O
   0.5200859064749999    0.5510714817249999    0.5532484375499997 O
   0.2700859064749999    0.8010714817249998    0.0532484375499997 O
   0.2700859064749999    0.8010714817249998    0.5532484375499997 O
   0.5200859064750000    0.0510714817249998    0.0532484375499997 O
   0.5200859064749999    0.0510714817249998    0.5532484375499997 O
   0.7700859064749999    0.3010714817249998    0.0532484375499997 O
   0.7700859064750000    0.3010714817249998    0.5532484375499997 O
   0.0200859064749999    0.5510714817249999    0.0532484375499997 O
   0.0200859064749999    0.5510714817249999    0.5532484375499997 O
   0.7700859064749999    0.8010714817249998    0.0532484375499997 O
   0.7700859064750000    0.8010714817249998    0.5532484375499997 O
   0.0200859064749999    0.0510714817249998    0.0532484375499997 O
   0.0200859064749999    0.0510714817249998    0.5532484375499997 O
   0.2700859064749999    0.6989285182750002    0.3032484375499997 O
   0.2700859064749999    0.6989285182750002    0.8032484375499997 O
   0.5200859064750000    0.9489285182750004    0.3032484375499997 O
   0.5200859064750000    0.9489285182750004    0.8032484375499997 O
   0.2700859064749999    0.1989285182750002    0.3032484375499997 O
   0.2700859064749999    0.1989285182750002    0.8032484375499997 O
   0.5200859064750000    0.4489285182750002    0.3032484375499997 O
   0.5200859064750000    0.4489285182750002    0.8032484375499997 O
   0.7700859064750000    0.6989285182750002    0.3032484375499997 O
   0.7700859064750000    0.6989285182750002    0.8032484375499997 O
   0.0200859064749999    0.9489285182750004    0.3032484375499997 O
   0.0200859064750001    0.9489285182750004    0.8032484375499997 O
   0.7700859064750000    0.1989285182750002    0.3032484375499997 O
   0.7700859064750000    0.1989285182750002    0.8032484375499997 O
   0.0200859064749999    0.4489285182750002    0.3032484375499997 O
   0.0200859064750001    0.4489285182750002    0.8032484375499997 O
   0.2299140935250002    0.6989285182750002    0.4467515624500003 O
   0.2299140935250002    0.6989285182750002    0.9467515624500003 O
   0.4799140935250001    0.9489285182750004    0.4467515624500003 O
   0.4799140935250002    0.9489285182750004    0.9467515624500003 O
   0.2299140935250002    0.1989285182750002    0.4467515624500003 O
   0.2299140935250002    0.1989285182750002    0.9467515624500003 O
   0.4799140935250001    0.4489285182750002    0.4467515624500003 O
   0.4799140935250002    0.4489285182750002    0.9467515624500003 O
   0.7299140935250003    0.6989285182750002    0.4467515624500003 O
   0.7299140935250001    0.6989285182750002    0.9467515624500003 O
   0.9799140935250003    0.9489285182750004    0.4467515624500003 O
   0.9799140935250003    0.9489285182750004    0.9467515624500003 O
   0.7299140935250003    0.1989285182750002    0.4467515624500003 O
   0.7299140935250001    0.1989285182750002    0.9467515624500003 O
   0.9799140935250003    0.4489285182750002    0.4467515624500003 O
   0.9799140935250003    0.4489285182750002    0.9467515624500003 O
   0.4233539778499989    0.4336861560000003    0.0711202455000013 O
   0.4233539778499989    0.4336861560000003    0.5711202455000013 O
   0.6733539778499988    0.6836861560000003    0.0711202455000013 O
   0.6733539778499988    0.6836861560000003    0.5711202455000013 O
   0.4233539778499989    0.9336861560000003    0.0711202455000013 O
   0.4233539778499989    0.9336861560000003    0.5711202455000013 O
   0.6733539778499988    0.1836861560000003    0.0711202455000013 O
   0.6733539778499988    0.1836861560000003    0.5711202455000013 O
   0.9233539778499990    0.4336861560000003    0.0711202455000013 O
   0.9233539778499988    0.4336861560000003    0.5711202455000013 O
   0.1733539778499988    0.6836861560000003    0.0711202455000013 O
   0.1733539778499988    0.6836861560000003    0.5711202455000013 O
   0.9233539778499990    0.9336861560000003    0.0711202455000013 O
   0.9233539778499988    0.9336861560000003    0.5711202455000013 O
   0.1733539778499988    0.1836861560000003    0.0711202455000013 O
   0.1733539778499988    0.1836861560000003    0.5711202455000013 O
   0.0766460221500012    0.4336861560000003    0.1788797544999987 O
   0.0766460221500012    0.4336861560000003    0.6788797544999987 O
   0.3266460221500012    0.6836861560000003    0.1788797544999987 O
   0.3266460221500012    0.6836861560000003    0.6788797544999987 O
   0.0766460221500012    0.9336861560000003    0.1788797544999987 O
   0.0766460221500012    0.9336861560000003    0.6788797544999987 O
   0.3266460221500012    0.1836861560000003    0.1788797544999987 O
   0.3266460221500012    0.1836861560000003    0.6788797544999987 O
   0.5766460221500012    0.4336861560000003    0.1788797544999987 O
   0.5766460221500013    0.4336861560000003    0.6788797544999987 O
   0.8266460221500013    0.6836861560000003    0.1788797544999987 O
   0.8266460221500013    0.6836861560000003    0.6788797544999987 O
   0.5766460221500012    0.9336861560000003    0.1788797544999987 O
   0.5766460221500013    0.9336861560000003    0.6788797544999987 O
   0.8266460221500013    0.1836861560000003    0.1788797544999987 O
   0.8266460221500013    0.1836861560000003    0.6788797544999987 O
